p tw 68 829
0 1
0 2
0 3
0 4
0 5
0 6
0 7
0 8
0 9
0 10
0 11
0 12
0 13
0 14
0 15
0 16
0 19
0 27
0 44
0 47
0 52
0 64
0 65
0 66
0 67
1 2
1 3
1 4
1 5
1 6
1 7
1 8
1 9
1 10
1 11
1 12
1 13
1 14
1 16
1 19
1 22
1 27
1 28
1 29
1 30
1 31
1 32
1 33
1 34
2 3
2 4
2 5
2 6
2 7
2 8
2 9
2 10
2 11
2 12
2 13
2 14
2 15
2 16
2 17
2 18
2 19
2 20
2 21
2 22
2 23
2 24
2 25
2 26
2 27
3 4
3 5
3 6
3 7
3 8
3 9
3 10
3 11
3 12
3 13
3 14
3 15
3 16
3 19
3 27
3 44
3 47
3 52
3 64
3 65
3 66
3 67
4 5
4 6
4 7
4 8
4 9
4 10
4 11
4 12
4 13
4 14
4 21
4 22
4 23
4 35
4 36
4 37
4 38
4 39
4 40
4 41
4 42
4 43
4 44
4 15
4 16
4 19
4 30
4 32
4 53
4 56
4 60
4 61
4 62
4 63
4 27
4 47
4 52
4 64
4 65
4 66
4 67
5 6
5 7
5 8
5 9
5 10
5 11
5 12
5 13
5 14
5 15
5 16
5 17
5 18
5 19
5 20
5 21
5 22
5 23
5 24
5 25
5 26
5 27
6 7
6 8
6 9
6 10
6 11
6 12
6 13
6 14
6 16
6 19
6 22
6 27
6 28
6 29
6 30
6 31
6 32
6 33
6 34
6 25
6 38
6 39
6 43
6 44
6 47
6 51
6 52
6 57
6 58
6 59
7 8
7 9
7 10
7 11
7 12
7 13
7 14
7 16
7 19
7 22
7 27
7 28
7 29
7 30
7 31
7 32
7 33
7 34
7 15
7 25
7 37
7 40
7 42
7 52
7 53
7 54
7 55
7 56
8 9
8 10
8 11
8 12
8 13
8 14
8 21
8 22
8 23
8 35
8 36
8 37
8 38
8 39
8 40
8 41
8 42
8 43
8 44
9 10
9 11
9 12
9 13
9 14
9 15
9 16
9 19
9 27
9 44
9 47
9 52
9 64
9 65
9 66
9 67
10 11
10 12
10 13
10 14
10 15
10 16
10 19
10 30
10 32
10 36
10 39
10 53
10 56
10 60
10 61
10 62
10 63
11 12
11 13
11 14
11 16
11 19
11 22
11 27
11 28
11 29
11 30
11 31
11 32
11 33
11 34
11 20
11 21
11 40
11 41
11 45
11 46
11 47
11 48
11 49
11 50
11 51
11 15
11 25
11 37
11 42
11 52
11 53
11 54
11 55
11 56
12 13
12 14
13 14
13 19
13 20
13 21
13 28
13 40
13 41
13 45
13 46
13 47
13 48
13 49
13 50
13 51
15 16
15 17
15 18
15 19
15 20
15 21
15 22
15 23
15 24
15 25
15 26
15 27
15 28
15 32
15 37
15 40
15 42
15 52
15 53
15 54
15 55
15 56
15 30
15 36
15 39
15 60
15 61
15 62
15 63
15 44
15 47
15 64
15 65
15 66
15 67
16 17
16 18
16 19
16 20
16 21
16 22
16 23
16 24
16 25
16 26
16 27
16 28
16 29
16 30
16 31
16 32
16 33
16 34
16 37
16 40
16 42
16 52
16 53
16 54
16 55
16 56
16 36
16 39
16 60
16 61
16 62
16 63
16 44
16 47
16 64
16 65
16 66
16 67
17 18
17 19
17 20
17 21
17 22
17 23
17 24
17 25
17 26
17 27
18 19
18 20
18 21
18 22
18 23
18 24
18 25
18 26
18 27
19 20
19 21
19 22
19 23
19 24
19 25
19 26
19 27
19 28
19 29
19 30
19 31
19 32
19 33
19 34
19 40
19 41
19 45
19 46
19 47
19 48
19 49
19 50
19 51
19 36
19 39
19 53
19 56
19 60
19 61
19 62
19 63
19 44
19 52
19 64
19 65
19 66
19 67
20 21
20 22
20 23
20 24
20 25
20 26
20 27
20 28
20 40
20 41
20 45
20 46
20 47
20 48
20 49
20 50
20 51
21 22
21 23
21 24
21 25
21 26
21 27
21 35
21 36
21 37
21 38
21 39
21 40
21 41
21 42
21 43
21 44
21 28
21 45
21 46
21 47
21 48
21 49
21 50
21 51
22 23
22 24
22 25
22 26
22 27
22 28
22 29
22 30
22 31
22 32
22 33
22 34
22 35
22 36
22 37
22 38
22 39
22 40
22 41
22 42
22 43
22 44
23 24
23 25
23 26
23 27
23 35
23 36
23 37
23 38
23 39
23 40
23 41
23 42
23 43
23 44
24 25
24 26
24 27
25 26
25 27
25 28
25 32
25 37
25 40
25 42
25 52
25 53
25 54
25 55
25 56
25 34
25 38
25 39
25 43
25 44
25 47
25 51
25 57
25 58
25 59
26 27
27 28
27 29
27 30
27 31
27 32
27 33
27 34
27 38
27 39
27 43
27 44
27 47
27 51
27 52
27 57
27 58
27 59
27 64
27 65
27 66
27 67
28 29
28 30
28 31
28 32
28 33
28 34
28 40
28 41
28 45
28 46
28 47
28 48
28 49
28 50
28 51
28 37
28 42
28 52
28 53
28 54
28 55
28 56
29 30
29 31
29 32
29 33
29 34
30 31
30 32
30 33
30 34
30 36
30 39
30 53
30 56
30 60
30 61
30 62
30 63
31 32
31 33
31 34
32 33
32 34
32 37
32 40
32 42
32 52
32 53
32 54
32 55
32 56
32 36
32 39
32 60
32 61
32 62
32 63
33 34
34 38
34 39
34 43
34 44
34 47
34 51
34 52
34 57
34 58
34 59
35 36
35 37
35 38
35 39
35 40
35 41
35 42
35 43
35 44
36 37
36 38
36 39
36 40
36 41
36 42
36 43
36 44
36 53
36 56
36 60
36 61
36 62
36 63
37 38
37 39
37 40
37 41
37 42
37 43
37 44
37 52
37 53
37 54
37 55
37 56
38 39
38 40
38 41
38 42
38 43
38 44
38 47
38 51
38 52
38 57
38 58
38 59
39 40
39 41
39 42
39 43
39 44
39 47
39 51
39 52
39 57
39 58
39 59
39 53
39 56
39 60
39 61
39 62
39 63
40 41
40 42
40 43
40 44
40 45
40 46
40 47
40 48
40 49
40 50
40 51
40 52
40 53
40 54
40 55
40 56
41 42
41 43
41 44
41 45
41 46
41 47
41 48
41 49
41 50
41 51
42 43
42 44
42 52
42 53
42 54
42 55
42 56
43 44
43 47
43 51
43 52
43 57
43 58
43 59
44 47
44 51
44 52
44 57
44 58
44 59
44 64
44 65
44 66
44 67
45 46
45 47
45 48
45 49
45 50
45 51
46 47
46 48
46 49
46 50
46 51
47 48
47 49
47 50
47 51
47 52
47 57
47 58
47 59
47 64
47 65
47 66
47 67
48 49
48 50
48 51
49 50
49 51
50 51
51 52
51 57
51 58
51 59
52 53
52 54
52 55
52 56
52 57
52 58
52 59
52 64
52 65
52 66
52 67
53 54
53 55
53 56
53 60
53 61
53 62
53 63
54 55
54 56
55 56
56 60
56 61
56 62
56 63
57 58
57 59
58 59
60 61
60 62
60 63
61 62
61 63
62 63
64 65
64 66
64 67
65 66
65 67
66 67
